numero_plantas = 6;
numero_clientes = 8;
numero_dias = 5;
costos = [18.0, 28.0, 38.0, 48.0, 58.0, 68.0];
capacidades = [250.0, 500.0, 750.0, 1000.0, 1250.0, 1500.0];
G = 50.0;
demanda = [| 100.0, 120.0, 140.0, 160.0, 180.0
           | 150.0, 170.0, 190.0, 210.0, 230.0
           | 200.0, 220.0, 240.0, 260.0, 280.0
           | 250.0, 270.0, 290.0, 310.0, 330.0
           | 300.0, 320.0, 340.0, 360.0, 380.0
           | 350.0, 370.0, 390.0, 410.0, 420.0
           | 400.0, 420.0, 440.0, 460.0, 480.0
           | 450.0, 470.0, 490.0, 510.0, 530.0|];
pagos = [90.0, 95.0, 100.0, 105.0, 110.0, 115.0, 120.0, 125.0];
porcentaje_regimen_alto = [100.0, 100.0, 100.0, 100.0, 90.0, 95.0];
max_dias_consecutivos_regimen = [1, 2, 3, 4, 2, 1];